SDVRP instances/p11/p11_110_tsplib0.txt
NAME: .\SDVRP instances\p11\p11_110
BEST_KNOWN: 0
COMMENT: 0
DIMENSION: 121
CAPACITY: 200
EDGE_WEIGHT_FORMAT: FUNCTION
EDGE_WEIGHT_TYPE: EXACT_2D
NODE_COORD_SECTION
1 0 0
2 15 -44
3 15 -42
4 21 -40
5 22 -40
6 21 -38
7 22 -36
8 24 -36
9 36 -36
10 25 -38
11 24 -39
12 25 -40
13 37 -39
14 30 -40
15 29 -42
16 26 -42
17 63 -39
18 63 -37
19 14 -9
20 66 -39
21 66 -35
22 66 -32
23 68 -42
24 68 -36
25 69 -42
26 69 -40
27 69 -34
28 72 -42
29 72 -38
30 80 -30
31 74 -42
32 74 -40
33 74 -36
34 75 -44
35 77 -40
36 75 -37
37 77 -38
38 76 -4
39 76 -1
40 76 1
41 75 10
42 79 -2
43 79 1
44 79 7
45 82 -3
46 82 7
47 84 -3
48 84 -1
49 84 3
50 86 -3
51 89 1
52 89 5
53 73 35
54 73 38
55 75 36
56 75 40
57 75 44
58 77 35
59 77 41
60 80 32
61 80 43
62 83 37
63 83 39
64 83 44
65 84 41
66 85 35
67 89 44
68 27 38
69 40 35
70 25 40
71 25 42
72 34 41
73 36 44
74 36 38
75 36 42
76 36 44
77 38 38
78 40 40
79 40 43
80 44 41
81 44 45
82 0 -10
83 0 -5
84 8 -15
85 7 -10
86 6 -7
87 4 -5
88 5 -3
89 1 -3
90 8 -5
91 11 -6
92 10 -5
93 8 -4
94 10 -1
95 12 -1
96 6 0
97 10 0
98 15 0
99 20 10
100 10 5
101 12 6
102 8 4
103 6 3
104 10 10
105 8 8
106 4 5
107 5 6
108 6 9
109 18 -12
110 23 -7
111 20 5
112 3 -5
113 5 -9
114 8 -14
115 15 -8
116 20 1
117 15 7
118 6 -12
119 15 -10
120 -5 -5
121 -5 5
DEMAND_SECTION
1 0
2 17
3 9
4 6
5 12
6 18
7 17
8 10
9 3
10 5
11 2
12 16
13 9
14 10
15 11
16 14
17 7
18 3
19 11
20 17
21 11
22 3
23 13
24 13
25 12
26 16
27 15
28 2
29 15
30 4
31 3
32 17
33 16
34 16
35 5
36 17
37 10
38 16
39 10
40 10
41 16
42 5
43 3
44 13
45 14
46 17
47 7
48 10
49 9
50 17
51 13
52 13
53 13
54 3
55 18
56 15
57 15
58 7
59 14
60 9
61 8
62 17
63 6
64 7
65 7
66 8
67 10
68 17
69 3
70 19
71 17
72 19
73 18
74 17
75 19
76 2
77 7
78 12
79 15
80 12
81 16
82 13
83 7
84 14
85 13
86 19
87 16
88 19
89 16
90 17
91 4
92 16
93 12
94 5
95 18
96 14
97 16
98 15
99 9
100 15
101 3
102 14
103 16
104 15
105 19
106 9
107 6
108 3
109 12
110 7
111 18
112 18
113 13
114 2
115 7
116 14
117 9
118 8
119 16
120 15
121 18
DEPOT_SECTION
1
-1
EOF
