SDVRP instances/p11/p11_110_tsplib0.sol
120 -17 16 19 25 22 24 27 33 30 31 34 36 35 32 28 23 20 109 -21 26 29 37 38 39 42 41 44 46 47 49 50 51 48 45 43 40 93 -68 79 80 53 55 58 56 60 63 66 64 62 61 65 59 57 54 52 98 100 -81 2 1 3 4 5 6 7 9 10 11 15 14 13 12 8 83 113 117 -87 92 89 91 90 114 108 118 18 84 112 85 86 111 -88 82 119 -95 96 94 97 115 110 116 103 104 99 101 102 -105 106 107 73 76 77 78 72 75 74 71 70 69 67 120 0 





OBJ=
1045.911
BEST_KNOWN=
0.000